% Auto-generated by scripts/generate_dzn.py
% problem_type   = regex
% instance       = regex_35
% source_json    = instances_json/1_medium_blowup/regex_35.json
% blowup         = 7.7
% representation = NFA

mode = 1;

var_count = 22;
n_constraints = 2;
Q = 11;
S = 2;
q0 = [1, 1];
F = [{11}, {9}];
weights = [7, 2, 10, 5, 3, 9, 5, 10, 8, 5, 3, 1, 4, 1, 2, 3, 2, 1, 7, 10, 8, 5];
d_dfa = array3d(1..2, 1..11, 1..2, [
  % k = 1
    0, 0,
    0, 0,
    0, 0,
    0, 0,
    0, 0,
    0, 0,
    0, 0,
    0, 0,
    0, 0,
    0, 0,
    0, 0,

  % k = 2
    0, 0,
    0, 0,
    0, 0,
    0, 0,
    0, 0,
    0, 0,
    0, 0,
    0, 0,
    0, 0,
    0, 0,
    0, 0
]);
d_nfa = array3d(1..2, 1..11, 1..2, [
  % k = 1
    {1}, {1, 2},
    {3}, {},
    {4}, {4},
    {5}, {5},
    {6}, {6},
    {7}, {7},
    {8}, {8},
    {9}, {9},
    {10}, {10},
    {11}, {11},
    {}, {},

  % k = 2
    {2}, {1},
    {3}, {2},
    {4}, {3},
    {5}, {4},
    {6}, {5},
    {7}, {6},
    {8}, {7},
    {9}, {8},
    {}, {9},
    {}, {},
    {}, {}
]);
